NAME : bayg29Preorder.483.tour
COMMENT : Length = 483
COMMENT : Found by LKH [Keld Helsgaun] Thu Apr 23 18:18:26 2020
TYPE : TOUR
DIMENSION : 29
TOUR_SECTION
1
24
13
16
27
8
23
7
25
19
11
22
17
14
18
15
4
10
20
2
21
5
29
3
26
9
12
6
28
-1
EOF
